p cnf 556 1886
c p weight -221 1 0
c p weight 221 -1 0
c p weight 225 6.12323399573676603586882014729198302312846062338790031898128063403419218957424163818359375E-17 0
c p weight -225 1 0
c p weight 226 1 0
c p weight -226 1 0
c p weight -223 1 0
c p weight 223 -1 0
c p weight -227 1 0
c p weight 227 -1 0
c p weight -229 1 0
c p weight 229 -1 0
c p weight -232 1 0
c p weight 232 -1 0
c p weight -235 1 0
c p weight 235 -1 0
c p weight -238 1 0
c p weight 238 -1 0
c p weight -241 1 0
c p weight 241 -1 0
c p weight -244 1 0
c p weight 244 -1 0
c p weight -247 1 0
c p weight 247 -1 0
c p weight -250 1 0
c p weight 250 -1 0
c p weight -253 1 0
c p weight 253 -1 0
c p weight -256 1 0
c p weight 256 -1 0
c p weight -259 1 0
c p weight 259 -1 0
c p weight -262 1 0
c p weight 262 -1 0
c p weight -265 1 0
c p weight 265 -1 0
c p weight -268 1 0
c p weight 268 -1 0
c p weight -271 1 0
c p weight 271 -1 0
c p weight -274 1 0
c p weight 274 -1 0
c p weight -277 1 0
c p weight 277 -1 0
c p weight -280 1 0
c p weight 280 -1 0
c p weight -283 1 0
c p weight 283 -1 0
c p weight -286 1 0
c p weight 286 -1 0
c p weight -289 1 0
c p weight 289 -1 0
c p weight -292 1 0
c p weight 292 -1 0
c p weight -295 1 0
c p weight 295 -1 0
c p weight -298 1 0
c p weight 298 -1 0
c p weight -301 1 0
c p weight 301 -1 0
c p weight -304 1 0
c p weight 304 -1 0
c p weight -307 1 0
c p weight 307 -1 0
c p weight -310 1 0
c p weight 310 -1 0
c p weight -313 1 0
c p weight 313 -1 0
c p weight -316 1 0
c p weight 316 -1 0
c p weight -319 1 0
c p weight 319 -1 0
c p weight -322 1 0
c p weight 322 -1 0
c p weight -325 1 0
c p weight 325 -1 0
c p weight -328 1 0
c p weight 328 -1 0
c p weight -331 1 0
c p weight 331 -1 0
c p weight -334 1 0
c p weight 334 -1 0
c p weight -337 1 0
c p weight 337 -1 0
c p weight -340 1 0
c p weight 340 -1 0
c p weight -343 1 0
c p weight 343 -1 0
c p weight -346 1 0
c p weight 346 -1 0
c p weight -349 1 0
c p weight 349 -1 0
c p weight -352 1 0
c p weight 352 -1 0
c p weight -355 1 0
c p weight 355 -1 0
c p weight -358 1 0
c p weight 358 -1 0
c p weight -361 1 0
c p weight 361 -1 0
c p weight -364 1 0
c p weight 364 -1 0
c p weight -367 1 0
c p weight 367 -1 0
c p weight -370 1 0
c p weight 370 -1 0
c p weight -373 1 0
c p weight 373 -1 0
c p weight -376 1 0
c p weight 376 -1 0
c p weight -379 1 0
c p weight 379 -1 0
c p weight -382 1 0
c p weight 382 -1 0
c p weight -385 1 0
c p weight 385 -1 0
c p weight -388 1 0
c p weight 388 -1 0
c p weight -391 1 0
c p weight 391 -1 0
c p weight -394 1 0
c p weight 394 -1 0
c p weight -397 1 0
c p weight 397 -1 0
c p weight -400 1 0
c p weight 400 -1 0
c p weight -403 1 0
c p weight 403 -1 0
c p weight -406 1 0
c p weight 406 -1 0
c p weight -409 1 0
c p weight 409 -1 0
c p weight -412 1 0
c p weight 412 -1 0
c p weight -415 1 0
c p weight 415 -1 0
c p weight -418 1 0
c p weight 418 -1 0
c p weight -421 1 0
c p weight 421 -1 0
c p weight -424 1 0
c p weight 424 -1 0
c p weight -427 1 0
c p weight 427 -1 0
c p weight -430 1 0
c p weight 430 -1 0
c p weight -433 1 0
c p weight 433 -1 0
c p weight -436 1 0
c p weight 436 -1 0
c p weight -439 1 0
c p weight 439 -1 0
c p weight -442 1 0
c p weight 442 -1 0
c p weight -445 1 0
c p weight 445 -1 0
c p weight -448 1 0
c p weight 448 -1 0
c p weight -451 1 0
c p weight 451 -1 0
c p weight -454 1 0
c p weight 454 -1 0
c p weight -457 1 0
c p weight 457 -1 0
c p weight -460 1 0
c p weight 460 -1 0
c p weight -463 1 0
c p weight 463 -1 0
c p weight -466 1 0
c p weight 466 -1 0
c p weight -469 1 0
c p weight 469 -1 0
c p weight -472 1 0
c p weight 472 -1 0
c p weight -475 1 0
c p weight 475 -1 0
c p weight -478 1 0
c p weight 478 -1 0
c p weight -481 1 0
c p weight 481 -1 0
c p weight -484 1 0
c p weight 484 -1 0
c p weight -487 1 0
c p weight 487 -1 0
c p weight -490 1 0
c p weight 490 -1 0
c p weight -493 1 0
c p weight 493 -1 0
c p weight -496 1 0
c p weight 496 -1 0
c p weight -499 1 0
c p weight 499 -1 0
c p weight -502 1 0
c p weight 502 -1 0
c p weight -505 1 0
c p weight 505 -1 0
c p weight -508 1 0
c p weight 508 -1 0
c p weight -511 1 0
c p weight 511 -1 0
c p weight -514 1 0
c p weight 514 -1 0
c p weight -517 1 0
c p weight 517 -1 0
c p weight -520 1 0
c p weight 520 -1 0
c p weight -523 1 0
c p weight 523 -1 0
c p weight -526 1 0
c p weight 526 -1 0
c p weight -529 1 0
c p weight 529 -1 0
c p weight -532 1 0
c p weight 532 -1 0
c p weight -535 1 0
c p weight 535 -1 0
c p weight -538 1 0
c p weight 538 -1 0
c p weight -541 1 0
c p weight 541 -1 0
c p weight -544 1 0
c p weight 544 -1 0
c p weight -547 1 0
c p weight 547 -1 0
c p weight -550 1 0
c p weight 550 -1 0
c p weight -553 1 0
c p weight 553 -1 0
c p weight 556 0.5 0
c p weight -556 1 0
556 0
-219 0
-217 0
-215 0
-213 0
-211 0
-209 0
-207 0
-205 0
-203 0
-201 0
-199 0
-197 0
-195 0
-193 0
-191 0
-189 0
-187 0
-185 0
-183 0
-181 0
-179 0
-177 0
-175 0
-173 0
-171 0
-169 0
-167 0
-165 0
-163 0
-161 0
-159 0
-157 0
-155 0
-153 0
-151 0
-149 0
-147 0
-145 0
-143 0
-141 0
-139 0
-137 0
-135 0
-133 0
-131 0
-129 0
-127 0
-125 0
-123 0
-121 0
-119 0
-117 0
-115 0
-113 0
-111 0
-109 0
-107 0
-105 0
-103 0
-101 0
-99 0
-97 0
-95 0
-93 0
-91 0
-89 0
-87 0
-85 0
-83 0
-81 0
-79 0
-77 0
-75 0
-73 0
-71 0
-69 0
-67 0
-65 0
-63 0
-61 0
-59 0
-57 0
-55 0
-53 0
-51 0
-49 0
-47 0
-45 0
-43 0
-41 0
-39 0
-37 0
-35 0
-33 0
-31 0
-29 0
-27 0
-25 0
-23 0
-21 0
-19 0
-17 0
-15 0
-13 0
-11 0
-9 0
-7 0
-5 0
-3 0
-1 0
-221 219 0
-221 220 0
221 -219 -220 0
222 219 -220 0
222 -219 220 0
-222 219 220 0
-222 -219 -220 0
-223 224 0
-223 222 0
-223 -219 0
223 -224 219 -222 0
224 -219 222 0
-224 219 222 0
-225 222 0
224 -225 -219 0
-224 -225 219 0
224 225 219 -222 0
-224 225 -219 -222 0
-226 222 0
224 -226 219 0
-224 -226 -219 0
224 226 -219 -222 0
-224 226 219 -222 0
-227 224 0
-227 222 0
227 -224 -222 0
228 224 -222 0
228 -224 222 0
-228 224 222 0
-228 -224 -222 0
-229 224 0
-229 218 0
-229 217 -228 0
-229 -217 228 0
229 -224 217 228 -218 0
229 -224 -217 -228 -218 0
231 224 -217 0
231 -224 217 0
-231 224 217 0
-231 -224 -217 0
230 228 -218 0
230 -228 218 0
-230 228 218 0
-230 -228 -218 0
-232 231 0
-232 216 0
-232 215 -218 0
-232 -215 218 0
232 -231 215 218 -216 0
232 -231 -215 -218 -216 0
234 231 -215 0
234 -231 215 0
-234 231 215 0
-234 -231 -215 0
233 218 -216 0
233 -218 216 0
-233 218 216 0
-233 -218 -216 0
-235 234 0
-235 214 0
-235 213 -216 0
-235 -213 216 0
235 -234 213 216 -214 0
235 -234 -213 -216 -214 0
237 234 -213 0
237 -234 213 0
-237 234 213 0
-237 -234 -213 0
236 216 -214 0
236 -216 214 0
-236 216 214 0
-236 -216 -214 0
-238 237 0
-238 212 0
-238 211 -214 0
-238 -211 214 0
238 -237 211 214 -212 0
238 -237 -211 -214 -212 0
240 237 -211 0
240 -237 211 0
-240 237 211 0
-240 -237 -211 0
239 214 -212 0
239 -214 212 0
-239 214 212 0
-239 -214 -212 0
-241 240 0
-241 210 0
-241 209 -212 0
-241 -209 212 0
241 -240 209 212 -210 0
241 -240 -209 -212 -210 0
243 240 -209 0
243 -240 209 0
-243 240 209 0
-243 -240 -209 0
242 212 -210 0
242 -212 210 0
-242 212 210 0
-242 -212 -210 0
-244 243 0
-244 208 0
-244 207 -210 0
-244 -207 210 0
244 -243 207 210 -208 0
244 -243 -207 -210 -208 0
246 243 -207 0
246 -243 207 0
-246 243 207 0
-246 -243 -207 0
245 210 -208 0
245 -210 208 0
-245 210 208 0
-245 -210 -208 0
-247 246 0
-247 206 0
-247 205 -208 0
-247 -205 208 0
247 -246 205 208 -206 0
247 -246 -205 -208 -206 0
249 246 -205 0
249 -246 205 0
-249 246 205 0
-249 -246 -205 0
248 208 -206 0
248 -208 206 0
-248 208 206 0
-248 -208 -206 0
-250 249 0
-250 204 0
-250 203 -206 0
-250 -203 206 0
250 -249 203 206 -204 0
250 -249 -203 -206 -204 0
252 249 -203 0
252 -249 203 0
-252 249 203 0
-252 -249 -203 0
251 206 -204 0
251 -206 204 0
-251 206 204 0
-251 -206 -204 0
-253 252 0
-253 202 0
-253 201 -204 0
-253 -201 204 0
253 -252 201 204 -202 0
253 -252 -201 -204 -202 0
255 252 -201 0
255 -252 201 0
-255 252 201 0
-255 -252 -201 0
254 204 -202 0
254 -204 202 0
-254 204 202 0
-254 -204 -202 0
-256 255 0
-256 200 0
-256 199 -202 0
-256 -199 202 0
256 -255 199 202 -200 0
256 -255 -199 -202 -200 0
258 255 -199 0
258 -255 199 0
-258 255 199 0
-258 -255 -199 0
257 202 -200 0
257 -202 200 0
-257 202 200 0
-257 -202 -200 0
-259 258 0
-259 198 0
-259 197 -200 0
-259 -197 200 0
259 -258 197 200 -198 0
259 -258 -197 -200 -198 0
261 258 -197 0
261 -258 197 0
-261 258 197 0
-261 -258 -197 0
260 200 -198 0
260 -200 198 0
-260 200 198 0
-260 -200 -198 0
-262 261 0
-262 196 0
-262 195 -198 0
-262 -195 198 0
262 -261 195 198 -196 0
262 -261 -195 -198 -196 0
264 261 -195 0
264 -261 195 0
-264 261 195 0
-264 -261 -195 0
263 198 -196 0
263 -198 196 0
-263 198 196 0
-263 -198 -196 0
-265 264 0
-265 194 0
-265 193 -196 0
-265 -193 196 0
265 -264 193 196 -194 0
265 -264 -193 -196 -194 0
267 264 -193 0
267 -264 193 0
-267 264 193 0
-267 -264 -193 0
266 196 -194 0
266 -196 194 0
-266 196 194 0
-266 -196 -194 0
-268 267 0
-268 192 0
-268 191 -194 0
-268 -191 194 0
268 -267 191 194 -192 0
268 -267 -191 -194 -192 0
270 267 -191 0
270 -267 191 0
-270 267 191 0
-270 -267 -191 0
269 194 -192 0
269 -194 192 0
-269 194 192 0
-269 -194 -192 0
-271 270 0
-271 190 0
-271 189 -192 0
-271 -189 192 0
271 -270 189 192 -190 0
271 -270 -189 -192 -190 0
273 270 -189 0
273 -270 189 0
-273 270 189 0
-273 -270 -189 0
272 192 -190 0
272 -192 190 0
-272 192 190 0
-272 -192 -190 0
-274 273 0
-274 188 0
-274 187 -190 0
-274 -187 190 0
274 -273 187 190 -188 0
274 -273 -187 -190 -188 0
276 273 -187 0
276 -273 187 0
-276 273 187 0
-276 -273 -187 0
275 190 -188 0
275 -190 188 0
-275 190 188 0
-275 -190 -188 0
-277 276 0
-277 186 0
-277 185 -188 0
-277 -185 188 0
277 -276 185 188 -186 0
277 -276 -185 -188 -186 0
279 276 -185 0
279 -276 185 0
-279 276 185 0
-279 -276 -185 0
278 188 -186 0
278 -188 186 0
-278 188 186 0
-278 -188 -186 0
-280 279 0
-280 184 0
-280 183 -186 0
-280 -183 186 0
280 -279 183 186 -184 0
280 -279 -183 -186 -184 0
282 279 -183 0
282 -279 183 0
-282 279 183 0
-282 -279 -183 0
281 186 -184 0
281 -186 184 0
-281 186 184 0
-281 -186 -184 0
-283 282 0
-283 182 0
-283 181 -184 0
-283 -181 184 0
283 -282 181 184 -182 0
283 -282 -181 -184 -182 0
285 282 -181 0
285 -282 181 0
-285 282 181 0
-285 -282 -181 0
284 184 -182 0
284 -184 182 0
-284 184 182 0
-284 -184 -182 0
-286 285 0
-286 180 0
-286 179 -182 0
-286 -179 182 0
286 -285 179 182 -180 0
286 -285 -179 -182 -180 0
288 285 -179 0
288 -285 179 0
-288 285 179 0
-288 -285 -179 0
287 182 -180 0
287 -182 180 0
-287 182 180 0
-287 -182 -180 0
-289 288 0
-289 178 0
-289 177 -180 0
-289 -177 180 0
289 -288 177 180 -178 0
289 -288 -177 -180 -178 0
291 288 -177 0
291 -288 177 0
-291 288 177 0
-291 -288 -177 0
290 180 -178 0
290 -180 178 0
-290 180 178 0
-290 -180 -178 0
-292 291 0
-292 176 0
-292 175 -178 0
-292 -175 178 0
292 -291 175 178 -176 0
292 -291 -175 -178 -176 0
294 291 -175 0
294 -291 175 0
-294 291 175 0
-294 -291 -175 0
293 178 -176 0
293 -178 176 0
-293 178 176 0
-293 -178 -176 0
-295 294 0
-295 174 0
-295 173 -176 0
-295 -173 176 0
295 -294 173 176 -174 0
295 -294 -173 -176 -174 0
297 294 -173 0
297 -294 173 0
-297 294 173 0
-297 -294 -173 0
296 176 -174 0
296 -176 174 0
-296 176 174 0
-296 -176 -174 0
-298 297 0
-298 172 0
-298 171 -174 0
-298 -171 174 0
298 -297 171 174 -172 0
298 -297 -171 -174 -172 0
300 297 -171 0
300 -297 171 0
-300 297 171 0
-300 -297 -171 0
299 174 -172 0
299 -174 172 0
-299 174 172 0
-299 -174 -172 0
-301 300 0
-301 170 0
-301 169 -172 0
-301 -169 172 0
301 -300 169 172 -170 0
301 -300 -169 -172 -170 0
303 300 -169 0
303 -300 169 0
-303 300 169 0
-303 -300 -169 0
302 172 -170 0
302 -172 170 0
-302 172 170 0
-302 -172 -170 0
-304 303 0
-304 168 0
-304 167 -170 0
-304 -167 170 0
304 -303 167 170 -168 0
304 -303 -167 -170 -168 0
306 303 -167 0
306 -303 167 0
-306 303 167 0
-306 -303 -167 0
305 170 -168 0
305 -170 168 0
-305 170 168 0
-305 -170 -168 0
-307 306 0
-307 166 0
-307 165 -168 0
-307 -165 168 0
307 -306 165 168 -166 0
307 -306 -165 -168 -166 0
309 306 -165 0
309 -306 165 0
-309 306 165 0
-309 -306 -165 0
308 168 -166 0
308 -168 166 0
-308 168 166 0
-308 -168 -166 0
-310 309 0
-310 164 0
-310 163 -166 0
-310 -163 166 0
310 -309 163 166 -164 0
310 -309 -163 -166 -164 0
312 309 -163 0
312 -309 163 0
-312 309 163 0
-312 -309 -163 0
311 166 -164 0
311 -166 164 0
-311 166 164 0
-311 -166 -164 0
-313 312 0
-313 162 0
-313 161 -164 0
-313 -161 164 0
313 -312 161 164 -162 0
313 -312 -161 -164 -162 0
315 312 -161 0
315 -312 161 0
-315 312 161 0
-315 -312 -161 0
314 164 -162 0
314 -164 162 0
-314 164 162 0
-314 -164 -162 0
-316 315 0
-316 160 0
-316 159 -162 0
-316 -159 162 0
316 -315 159 162 -160 0
316 -315 -159 -162 -160 0
318 315 -159 0
318 -315 159 0
-318 315 159 0
-318 -315 -159 0
317 162 -160 0
317 -162 160 0
-317 162 160 0
-317 -162 -160 0
-319 318 0
-319 158 0
-319 157 -160 0
-319 -157 160 0
319 -318 157 160 -158 0
319 -318 -157 -160 -158 0
321 318 -157 0
321 -318 157 0
-321 318 157 0
-321 -318 -157 0
320 160 -158 0
320 -160 158 0
-320 160 158 0
-320 -160 -158 0
-322 321 0
-322 156 0
-322 155 -158 0
-322 -155 158 0
322 -321 155 158 -156 0
322 -321 -155 -158 -156 0
324 321 -155 0
324 -321 155 0
-324 321 155 0
-324 -321 -155 0
323 158 -156 0
323 -158 156 0
-323 158 156 0
-323 -158 -156 0
-325 324 0
-325 154 0
-325 153 -156 0
-325 -153 156 0
325 -324 153 156 -154 0
325 -324 -153 -156 -154 0
327 324 -153 0
327 -324 153 0
-327 324 153 0
-327 -324 -153 0
326 156 -154 0
326 -156 154 0
-326 156 154 0
-326 -156 -154 0
-328 327 0
-328 152 0
-328 151 -154 0
-328 -151 154 0
328 -327 151 154 -152 0
328 -327 -151 -154 -152 0
330 327 -151 0
330 -327 151 0
-330 327 151 0
-330 -327 -151 0
329 154 -152 0
329 -154 152 0
-329 154 152 0
-329 -154 -152 0
-331 330 0
-331 150 0
-331 149 -152 0
-331 -149 152 0
331 -330 149 152 -150 0
331 -330 -149 -152 -150 0
333 330 -149 0
333 -330 149 0
-333 330 149 0
-333 -330 -149 0
332 152 -150 0
332 -152 150 0
-332 152 150 0
-332 -152 -150 0
-334 333 0
-334 148 0
-334 147 -150 0
-334 -147 150 0
334 -333 147 150 -148 0
334 -333 -147 -150 -148 0
336 333 -147 0
336 -333 147 0
-336 333 147 0
-336 -333 -147 0
335 150 -148 0
335 -150 148 0
-335 150 148 0
-335 -150 -148 0
-337 336 0
-337 146 0
-337 145 -148 0
-337 -145 148 0
337 -336 145 148 -146 0
337 -336 -145 -148 -146 0
339 336 -145 0
339 -336 145 0
-339 336 145 0
-339 -336 -145 0
338 148 -146 0
338 -148 146 0
-338 148 146 0
-338 -148 -146 0
-340 339 0
-340 144 0
-340 143 -146 0
-340 -143 146 0
340 -339 143 146 -144 0
340 -339 -143 -146 -144 0
342 339 -143 0
342 -339 143 0
-342 339 143 0
-342 -339 -143 0
341 146 -144 0
341 -146 144 0
-341 146 144 0
-341 -146 -144 0
-343 342 0
-343 142 0
-343 141 -144 0
-343 -141 144 0
343 -342 141 144 -142 0
343 -342 -141 -144 -142 0
345 342 -141 0
345 -342 141 0
-345 342 141 0
-345 -342 -141 0
344 144 -142 0
344 -144 142 0
-344 144 142 0
-344 -144 -142 0
-346 345 0
-346 140 0
-346 139 -142 0
-346 -139 142 0
346 -345 139 142 -140 0
346 -345 -139 -142 -140 0
348 345 -139 0
348 -345 139 0
-348 345 139 0
-348 -345 -139 0
347 142 -140 0
347 -142 140 0
-347 142 140 0
-347 -142 -140 0
-349 348 0
-349 138 0
-349 137 -140 0
-349 -137 140 0
349 -348 137 140 -138 0
349 -348 -137 -140 -138 0
351 348 -137 0
351 -348 137 0
-351 348 137 0
-351 -348 -137 0
350 140 -138 0
350 -140 138 0
-350 140 138 0
-350 -140 -138 0
-352 351 0
-352 136 0
-352 135 -138 0
-352 -135 138 0
352 -351 135 138 -136 0
352 -351 -135 -138 -136 0
354 351 -135 0
354 -351 135 0
-354 351 135 0
-354 -351 -135 0
353 138 -136 0
353 -138 136 0
-353 138 136 0
-353 -138 -136 0
-355 354 0
-355 134 0
-355 133 -136 0
-355 -133 136 0
355 -354 133 136 -134 0
355 -354 -133 -136 -134 0
357 354 -133 0
357 -354 133 0
-357 354 133 0
-357 -354 -133 0
356 136 -134 0
356 -136 134 0
-356 136 134 0
-356 -136 -134 0
-358 357 0
-358 132 0
-358 131 -134 0
-358 -131 134 0
358 -357 131 134 -132 0
358 -357 -131 -134 -132 0
360 357 -131 0
360 -357 131 0
-360 357 131 0
-360 -357 -131 0
359 134 -132 0
359 -134 132 0
-359 134 132 0
-359 -134 -132 0
-361 360 0
-361 130 0
-361 129 -132 0
-361 -129 132 0
361 -360 129 132 -130 0
361 -360 -129 -132 -130 0
363 360 -129 0
363 -360 129 0
-363 360 129 0
-363 -360 -129 0
362 132 -130 0
362 -132 130 0
-362 132 130 0
-362 -132 -130 0
-364 363 0
-364 128 0
-364 127 -130 0
-364 -127 130 0
364 -363 127 130 -128 0
364 -363 -127 -130 -128 0
366 363 -127 0
366 -363 127 0
-366 363 127 0
-366 -363 -127 0
365 130 -128 0
365 -130 128 0
-365 130 128 0
-365 -130 -128 0
-367 366 0
-367 126 0
-367 125 -128 0
-367 -125 128 0
367 -366 125 128 -126 0
367 -366 -125 -128 -126 0
369 366 -125 0
369 -366 125 0
-369 366 125 0
-369 -366 -125 0
368 128 -126 0
368 -128 126 0
-368 128 126 0
-368 -128 -126 0
-370 369 0
-370 124 0
-370 123 -126 0
-370 -123 126 0
370 -369 123 126 -124 0
370 -369 -123 -126 -124 0
372 369 -123 0
372 -369 123 0
-372 369 123 0
-372 -369 -123 0
371 126 -124 0
371 -126 124 0
-371 126 124 0
-371 -126 -124 0
-373 372 0
-373 122 0
-373 121 -124 0
-373 -121 124 0
373 -372 121 124 -122 0
373 -372 -121 -124 -122 0
375 372 -121 0
375 -372 121 0
-375 372 121 0
-375 -372 -121 0
374 124 -122 0
374 -124 122 0
-374 124 122 0
-374 -124 -122 0
-376 375 0
-376 120 0
-376 119 -122 0
-376 -119 122 0
376 -375 119 122 -120 0
376 -375 -119 -122 -120 0
378 375 -119 0
378 -375 119 0
-378 375 119 0
-378 -375 -119 0
377 122 -120 0
377 -122 120 0
-377 122 120 0
-377 -122 -120 0
-379 378 0
-379 118 0
-379 117 -120 0
-379 -117 120 0
379 -378 117 120 -118 0
379 -378 -117 -120 -118 0
381 378 -117 0
381 -378 117 0
-381 378 117 0
-381 -378 -117 0
380 120 -118 0
380 -120 118 0
-380 120 118 0
-380 -120 -118 0
-382 381 0
-382 116 0
-382 115 -118 0
-382 -115 118 0
382 -381 115 118 -116 0
382 -381 -115 -118 -116 0
384 381 -115 0
384 -381 115 0
-384 381 115 0
-384 -381 -115 0
383 118 -116 0
383 -118 116 0
-383 118 116 0
-383 -118 -116 0
-385 384 0
-385 114 0
-385 113 -116 0
-385 -113 116 0
385 -384 113 116 -114 0
385 -384 -113 -116 -114 0
387 384 -113 0
387 -384 113 0
-387 384 113 0
-387 -384 -113 0
386 116 -114 0
386 -116 114 0
-386 116 114 0
-386 -116 -114 0
-388 387 0
-388 112 0
-388 111 -114 0
-388 -111 114 0
388 -387 111 114 -112 0
388 -387 -111 -114 -112 0
390 387 -111 0
390 -387 111 0
-390 387 111 0
-390 -387 -111 0
389 114 -112 0
389 -114 112 0
-389 114 112 0
-389 -114 -112 0
-391 390 0
-391 110 0
-391 109 -112 0
-391 -109 112 0
391 -390 109 112 -110 0
391 -390 -109 -112 -110 0
393 390 -109 0
393 -390 109 0
-393 390 109 0
-393 -390 -109 0
392 112 -110 0
392 -112 110 0
-392 112 110 0
-392 -112 -110 0
-394 393 0
-394 108 0
-394 107 -110 0
-394 -107 110 0
394 -393 107 110 -108 0
394 -393 -107 -110 -108 0
396 393 -107 0
396 -393 107 0
-396 393 107 0
-396 -393 -107 0
395 110 -108 0
395 -110 108 0
-395 110 108 0
-395 -110 -108 0
-397 396 0
-397 106 0
-397 105 -108 0
-397 -105 108 0
397 -396 105 108 -106 0
397 -396 -105 -108 -106 0
399 396 -105 0
399 -396 105 0
-399 396 105 0
-399 -396 -105 0
398 108 -106 0
398 -108 106 0
-398 108 106 0
-398 -108 -106 0
-400 399 0
-400 104 0
-400 103 -106 0
-400 -103 106 0
400 -399 103 106 -104 0
400 -399 -103 -106 -104 0
402 399 -103 0
402 -399 103 0
-402 399 103 0
-402 -399 -103 0
401 106 -104 0
401 -106 104 0
-401 106 104 0
-401 -106 -104 0
-403 402 0
-403 102 0
-403 101 -104 0
-403 -101 104 0
403 -402 101 104 -102 0
403 -402 -101 -104 -102 0
405 402 -101 0
405 -402 101 0
-405 402 101 0
-405 -402 -101 0
404 104 -102 0
404 -104 102 0
-404 104 102 0
-404 -104 -102 0
-406 405 0
-406 100 0
-406 99 -102 0
-406 -99 102 0
406 -405 99 102 -100 0
406 -405 -99 -102 -100 0
408 405 -99 0
408 -405 99 0
-408 405 99 0
-408 -405 -99 0
407 102 -100 0
407 -102 100 0
-407 102 100 0
-407 -102 -100 0
-409 408 0
-409 98 0
-409 97 -100 0
-409 -97 100 0
409 -408 97 100 -98 0
409 -408 -97 -100 -98 0
411 408 -97 0
411 -408 97 0
-411 408 97 0
-411 -408 -97 0
410 100 -98 0
410 -100 98 0
-410 100 98 0
-410 -100 -98 0
-412 411 0
-412 96 0
-412 95 -98 0
-412 -95 98 0
412 -411 95 98 -96 0
412 -411 -95 -98 -96 0
414 411 -95 0
414 -411 95 0
-414 411 95 0
-414 -411 -95 0
413 98 -96 0
413 -98 96 0
-413 98 96 0
-413 -98 -96 0
-415 414 0
-415 94 0
-415 93 -96 0
-415 -93 96 0
415 -414 93 96 -94 0
415 -414 -93 -96 -94 0
417 414 -93 0
417 -414 93 0
-417 414 93 0
-417 -414 -93 0
416 96 -94 0
416 -96 94 0
-416 96 94 0
-416 -96 -94 0
-418 417 0
-418 92 0
-418 91 -94 0
-418 -91 94 0
418 -417 91 94 -92 0
418 -417 -91 -94 -92 0
420 417 -91 0
420 -417 91 0
-420 417 91 0
-420 -417 -91 0
419 94 -92 0
419 -94 92 0
-419 94 92 0
-419 -94 -92 0
-421 420 0
-421 90 0
-421 89 -92 0
-421 -89 92 0
421 -420 89 92 -90 0
421 -420 -89 -92 -90 0
423 420 -89 0
423 -420 89 0
-423 420 89 0
-423 -420 -89 0
422 92 -90 0
422 -92 90 0
-422 92 90 0
-422 -92 -90 0
-424 423 0
-424 88 0
-424 87 -90 0
-424 -87 90 0
424 -423 87 90 -88 0
424 -423 -87 -90 -88 0
426 423 -87 0
426 -423 87 0
-426 423 87 0
-426 -423 -87 0
425 90 -88 0
425 -90 88 0
-425 90 88 0
-425 -90 -88 0
-427 426 0
-427 86 0
-427 85 -88 0
-427 -85 88 0
427 -426 85 88 -86 0
427 -426 -85 -88 -86 0
429 426 -85 0
429 -426 85 0
-429 426 85 0
-429 -426 -85 0
428 88 -86 0
428 -88 86 0
-428 88 86 0
-428 -88 -86 0
-430 429 0
-430 84 0
-430 83 -86 0
-430 -83 86 0
430 -429 83 86 -84 0
430 -429 -83 -86 -84 0
432 429 -83 0
432 -429 83 0
-432 429 83 0
-432 -429 -83 0
431 86 -84 0
431 -86 84 0
-431 86 84 0
-431 -86 -84 0
-433 432 0
-433 82 0
-433 81 -84 0
-433 -81 84 0
433 -432 81 84 -82 0
433 -432 -81 -84 -82 0
435 432 -81 0
435 -432 81 0
-435 432 81 0
-435 -432 -81 0
434 84 -82 0
434 -84 82 0
-434 84 82 0
-434 -84 -82 0
-436 435 0
-436 80 0
-436 79 -82 0
-436 -79 82 0
436 -435 79 82 -80 0
436 -435 -79 -82 -80 0
438 435 -79 0
438 -435 79 0
-438 435 79 0
-438 -435 -79 0
437 82 -80 0
437 -82 80 0
-437 82 80 0
-437 -82 -80 0
-439 438 0
-439 78 0
-439 77 -80 0
-439 -77 80 0
439 -438 77 80 -78 0
439 -438 -77 -80 -78 0
441 438 -77 0
441 -438 77 0
-441 438 77 0
-441 -438 -77 0
440 80 -78 0
440 -80 78 0
-440 80 78 0
-440 -80 -78 0
-442 441 0
-442 76 0
-442 75 -78 0
-442 -75 78 0
442 -441 75 78 -76 0
442 -441 -75 -78 -76 0
444 441 -75 0
444 -441 75 0
-444 441 75 0
-444 -441 -75 0
443 78 -76 0
443 -78 76 0
-443 78 76 0
-443 -78 -76 0
-445 444 0
-445 74 0
-445 73 -76 0
-445 -73 76 0
445 -444 73 76 -74 0
445 -444 -73 -76 -74 0
447 444 -73 0
447 -444 73 0
-447 444 73 0
-447 -444 -73 0
446 76 -74 0
446 -76 74 0
-446 76 74 0
-446 -76 -74 0
-448 447 0
-448 72 0
-448 71 -74 0
-448 -71 74 0
448 -447 71 74 -72 0
448 -447 -71 -74 -72 0
450 447 -71 0
450 -447 71 0
-450 447 71 0
-450 -447 -71 0
449 74 -72 0
449 -74 72 0
-449 74 72 0
-449 -74 -72 0
-451 450 0
-451 70 0
-451 69 -72 0
-451 -69 72 0
451 -450 69 72 -70 0
451 -450 -69 -72 -70 0
453 450 -69 0
453 -450 69 0
-453 450 69 0
-453 -450 -69 0
452 72 -70 0
452 -72 70 0
-452 72 70 0
-452 -72 -70 0
-454 453 0
-454 68 0
-454 67 -70 0
-454 -67 70 0
454 -453 67 70 -68 0
454 -453 -67 -70 -68 0
456 453 -67 0
456 -453 67 0
-456 453 67 0
-456 -453 -67 0
455 70 -68 0
455 -70 68 0
-455 70 68 0
-455 -70 -68 0
-457 456 0
-457 66 0
-457 65 -68 0
-457 -65 68 0
457 -456 65 68 -66 0
457 -456 -65 -68 -66 0
459 456 -65 0
459 -456 65 0
-459 456 65 0
-459 -456 -65 0
458 68 -66 0
458 -68 66 0
-458 68 66 0
-458 -68 -66 0
-460 459 0
-460 64 0
-460 63 -66 0
-460 -63 66 0
460 -459 63 66 -64 0
460 -459 -63 -66 -64 0
462 459 -63 0
462 -459 63 0
-462 459 63 0
-462 -459 -63 0
461 66 -64 0
461 -66 64 0
-461 66 64 0
-461 -66 -64 0
-463 462 0
-463 62 0
-463 61 -64 0
-463 -61 64 0
463 -462 61 64 -62 0
463 -462 -61 -64 -62 0
465 462 -61 0
465 -462 61 0
-465 462 61 0
-465 -462 -61 0
464 64 -62 0
464 -64 62 0
-464 64 62 0
-464 -64 -62 0
-466 465 0
-466 60 0
-466 59 -62 0
-466 -59 62 0
466 -465 59 62 -60 0
466 -465 -59 -62 -60 0
468 465 -59 0
468 -465 59 0
-468 465 59 0
-468 -465 -59 0
467 62 -60 0
467 -62 60 0
-467 62 60 0
-467 -62 -60 0
-469 468 0
-469 58 0
-469 57 -60 0
-469 -57 60 0
469 -468 57 60 -58 0
469 -468 -57 -60 -58 0
471 468 -57 0
471 -468 57 0
-471 468 57 0
-471 -468 -57 0
470 60 -58 0
470 -60 58 0
-470 60 58 0
-470 -60 -58 0
-472 471 0
-472 56 0
-472 55 -58 0
-472 -55 58 0
472 -471 55 58 -56 0
472 -471 -55 -58 -56 0
474 471 -55 0
474 -471 55 0
-474 471 55 0
-474 -471 -55 0
473 58 -56 0
473 -58 56 0
-473 58 56 0
-473 -58 -56 0
-475 474 0
-475 54 0
-475 53 -56 0
-475 -53 56 0
475 -474 53 56 -54 0
475 -474 -53 -56 -54 0
477 474 -53 0
477 -474 53 0
-477 474 53 0
-477 -474 -53 0
476 56 -54 0
476 -56 54 0
-476 56 54 0
-476 -56 -54 0
-478 477 0
-478 52 0
-478 51 -54 0
-478 -51 54 0
478 -477 51 54 -52 0
478 -477 -51 -54 -52 0
480 477 -51 0
480 -477 51 0
-480 477 51 0
-480 -477 -51 0
479 54 -52 0
479 -54 52 0
-479 54 52 0
-479 -54 -52 0
-481 480 0
-481 50 0
-481 49 -52 0
-481 -49 52 0
481 -480 49 52 -50 0
481 -480 -49 -52 -50 0
483 480 -49 0
483 -480 49 0
-483 480 49 0
-483 -480 -49 0
482 52 -50 0
482 -52 50 0
-482 52 50 0
-482 -52 -50 0
-484 483 0
-484 48 0
-484 47 -50 0
-484 -47 50 0
484 -483 47 50 -48 0
484 -483 -47 -50 -48 0
486 483 -47 0
486 -483 47 0
-486 483 47 0
-486 -483 -47 0
485 50 -48 0
485 -50 48 0
-485 50 48 0
-485 -50 -48 0
-487 486 0
-487 46 0
-487 45 -48 0
-487 -45 48 0
487 -486 45 48 -46 0
487 -486 -45 -48 -46 0
489 486 -45 0
489 -486 45 0
-489 486 45 0
-489 -486 -45 0
488 48 -46 0
488 -48 46 0
-488 48 46 0
-488 -48 -46 0
-490 489 0
-490 44 0
-490 43 -46 0
-490 -43 46 0
490 -489 43 46 -44 0
490 -489 -43 -46 -44 0
492 489 -43 0
492 -489 43 0
-492 489 43 0
-492 -489 -43 0
491 46 -44 0
491 -46 44 0
-491 46 44 0
-491 -46 -44 0
-493 492 0
-493 42 0
-493 41 -44 0
-493 -41 44 0
493 -492 41 44 -42 0
493 -492 -41 -44 -42 0
495 492 -41 0
495 -492 41 0
-495 492 41 0
-495 -492 -41 0
494 44 -42 0
494 -44 42 0
-494 44 42 0
-494 -44 -42 0
-496 495 0
-496 40 0
-496 39 -42 0
-496 -39 42 0
496 -495 39 42 -40 0
496 -495 -39 -42 -40 0
498 495 -39 0
498 -495 39 0
-498 495 39 0
-498 -495 -39 0
497 42 -40 0
497 -42 40 0
-497 42 40 0
-497 -42 -40 0
-499 498 0
-499 38 0
-499 37 -40 0
-499 -37 40 0
499 -498 37 40 -38 0
499 -498 -37 -40 -38 0
501 498 -37 0
501 -498 37 0
-501 498 37 0
-501 -498 -37 0
500 40 -38 0
500 -40 38 0
-500 40 38 0
-500 -40 -38 0
-502 501 0
-502 36 0
-502 35 -38 0
-502 -35 38 0
502 -501 35 38 -36 0
502 -501 -35 -38 -36 0
504 501 -35 0
504 -501 35 0
-504 501 35 0
-504 -501 -35 0
503 38 -36 0
503 -38 36 0
-503 38 36 0
-503 -38 -36 0
-505 504 0
-505 34 0
-505 33 -36 0
-505 -33 36 0
505 -504 33 36 -34 0
505 -504 -33 -36 -34 0
507 504 -33 0
507 -504 33 0
-507 504 33 0
-507 -504 -33 0
506 36 -34 0
506 -36 34 0
-506 36 34 0
-506 -36 -34 0
-508 507 0
-508 32 0
-508 31 -34 0
-508 -31 34 0
508 -507 31 34 -32 0
508 -507 -31 -34 -32 0
510 507 -31 0
510 -507 31 0
-510 507 31 0
-510 -507 -31 0
509 34 -32 0
509 -34 32 0
-509 34 32 0
-509 -34 -32 0
-511 510 0
-511 30 0
-511 29 -32 0
-511 -29 32 0
511 -510 29 32 -30 0
511 -510 -29 -32 -30 0
513 510 -29 0
513 -510 29 0
-513 510 29 0
-513 -510 -29 0
512 32 -30 0
512 -32 30 0
-512 32 30 0
-512 -32 -30 0
-514 513 0
-514 28 0
-514 27 -30 0
-514 -27 30 0
514 -513 27 30 -28 0
514 -513 -27 -30 -28 0
516 513 -27 0
516 -513 27 0
-516 513 27 0
-516 -513 -27 0
515 30 -28 0
515 -30 28 0
-515 30 28 0
-515 -30 -28 0
-517 516 0
-517 26 0
-517 25 -28 0
-517 -25 28 0
517 -516 25 28 -26 0
517 -516 -25 -28 -26 0
519 516 -25 0
519 -516 25 0
-519 516 25 0
-519 -516 -25 0
518 28 -26 0
518 -28 26 0
-518 28 26 0
-518 -28 -26 0
-520 519 0
-520 24 0
-520 23 -26 0
-520 -23 26 0
520 -519 23 26 -24 0
520 -519 -23 -26 -24 0
522 519 -23 0
522 -519 23 0
-522 519 23 0
-522 -519 -23 0
521 26 -24 0
521 -26 24 0
-521 26 24 0
-521 -26 -24 0
-523 522 0
-523 22 0
-523 21 -24 0
-523 -21 24 0
523 -522 21 24 -22 0
523 -522 -21 -24 -22 0
525 522 -21 0
525 -522 21 0
-525 522 21 0
-525 -522 -21 0
524 24 -22 0
524 -24 22 0
-524 24 22 0
-524 -24 -22 0
-526 525 0
-526 20 0
-526 19 -22 0
-526 -19 22 0
526 -525 19 22 -20 0
526 -525 -19 -22 -20 0
528 525 -19 0
528 -525 19 0
-528 525 19 0
-528 -525 -19 0
527 22 -20 0
527 -22 20 0
-527 22 20 0
-527 -22 -20 0
-529 528 0
-529 18 0
-529 17 -20 0
-529 -17 20 0
529 -528 17 20 -18 0
529 -528 -17 -20 -18 0
531 528 -17 0
531 -528 17 0
-531 528 17 0
-531 -528 -17 0
530 20 -18 0
530 -20 18 0
-530 20 18 0
-530 -20 -18 0
-532 531 0
-532 16 0
-532 15 -18 0
-532 -15 18 0
532 -531 15 18 -16 0
532 -531 -15 -18 -16 0
534 531 -15 0
534 -531 15 0
-534 531 15 0
-534 -531 -15 0
533 18 -16 0
533 -18 16 0
-533 18 16 0
-533 -18 -16 0
-535 534 0
-535 14 0
-535 13 -16 0
-535 -13 16 0
535 -534 13 16 -14 0
535 -534 -13 -16 -14 0
537 534 -13 0
537 -534 13 0
-537 534 13 0
-537 -534 -13 0
536 16 -14 0
536 -16 14 0
-536 16 14 0
-536 -16 -14 0
-538 537 0
-538 12 0
-538 11 -14 0
-538 -11 14 0
538 -537 11 14 -12 0
538 -537 -11 -14 -12 0
540 537 -11 0
540 -537 11 0
-540 537 11 0
-540 -537 -11 0
539 14 -12 0
539 -14 12 0
-539 14 12 0
-539 -14 -12 0
-541 540 0
-541 10 0
-541 9 -12 0
-541 -9 12 0
541 -540 9 12 -10 0
541 -540 -9 -12 -10 0
543 540 -9 0
543 -540 9 0
-543 540 9 0
-543 -540 -9 0
542 12 -10 0
542 -12 10 0
-542 12 10 0
-542 -12 -10 0
-544 543 0
-544 8 0
-544 7 -10 0
-544 -7 10 0
544 -543 7 10 -8 0
544 -543 -7 -10 -8 0
546 543 -7 0
546 -543 7 0
-546 543 7 0
-546 -543 -7 0
545 10 -8 0
545 -10 8 0
-545 10 8 0
-545 -10 -8 0
-547 546 0
-547 6 0
-547 5 -8 0
-547 -5 8 0
547 -546 5 8 -6 0
547 -546 -5 -8 -6 0
549 546 -5 0
549 -546 5 0
-549 546 5 0
-549 -546 -5 0
548 8 -6 0
548 -8 6 0
-548 8 6 0
-548 -8 -6 0
-550 549 0
-550 4 0
-550 3 -6 0
-550 -3 6 0
550 -549 3 6 -4 0
550 -549 -3 -6 -4 0
552 549 -3 0
552 -549 3 0
-552 549 3 0
-552 -549 -3 0
551 6 -4 0
551 -6 4 0
-551 6 4 0
-551 -6 -4 0
-553 552 0
-553 2 0
-553 1 -4 0
-553 -1 4 0
553 -552 1 4 -2 0
553 -552 -1 -4 -2 0
555 552 -1 0
555 -552 1 0
-555 552 1 0
-555 -552 -1 0
554 4 -2 0
554 -4 2 0
-554 4 2 0
-554 -4 -2 0
-555 0
-552 0
-554 0
-549 0
-551 0
-546 0
-548 0
-543 0
-545 0
-540 0
-542 0
-537 0
-539 0
-534 0
-536 0
-531 0
-533 0
-528 0
-530 0
-525 0
-527 0
-522 0
-524 0
-519 0
-521 0
-516 0
-518 0
-513 0
-515 0
-510 0
-512 0
-507 0
-509 0
-504 0
-506 0
-501 0
-503 0
-498 0
-500 0
-495 0
-497 0
-492 0
-494 0
-489 0
-491 0
-486 0
-488 0
-483 0
-485 0
-480 0
-482 0
-477 0
-479 0
-474 0
-476 0
-471 0
-473 0
-468 0
-470 0
-465 0
-467 0
-462 0
-464 0
-459 0
-461 0
-456 0
-458 0
-453 0
-455 0
-450 0
-452 0
-447 0
-449 0
-444 0
-446 0
-441 0
-443 0
-438 0
-440 0
-435 0
-437 0
-432 0
-434 0
-429 0
-431 0
-426 0
-428 0
-423 0
-425 0
-420 0
-422 0
-417 0
-419 0
-414 0
-416 0
-411 0
-413 0
-408 0
-410 0
-405 0
-407 0
-402 0
-404 0
-399 0
-401 0
-396 0
-398 0
-393 0
-395 0
-390 0
-392 0
-387 0
-389 0
-384 0
-386 0
-381 0
-383 0
-378 0
-380 0
-375 0
-377 0
-372 0
-374 0
-369 0
-371 0
-366 0
-368 0
-363 0
-365 0
-360 0
-362 0
-357 0
-359 0
-354 0
-356 0
-351 0
-353 0
-348 0
-350 0
-345 0
-347 0
-342 0
-344 0
-339 0
-341 0
-336 0
-338 0
-333 0
-335 0
-330 0
-332 0
-327 0
-329 0
-324 0
-326 0
-321 0
-323 0
-318 0
-320 0
-315 0
-317 0
-312 0
-314 0
-309 0
-311 0
-306 0
-308 0
-303 0
-305 0
-300 0
-302 0
-297 0
-299 0
-294 0
-296 0
-291 0
-293 0
-288 0
-290 0
-285 0
-287 0
-282 0
-284 0
-279 0
-281 0
-276 0
-278 0
-273 0
-275 0
-270 0
-272 0
-267 0
-269 0
-264 0
-266 0
-261 0
-263 0
-258 0
-260 0
-255 0
-257 0
-252 0
-254 0
-249 0
-251 0
-246 0
-248 0
-243 0
-245 0
-240 0
-242 0
-237 0
-239 0
-234 0
-236 0
-231 0
-233 0
-224 0
-230 0
